NAME: wi29
COMMENT: Integrantes: Leticia Almeida, Isabelli Pinho e Elislandia Aparecida; Metodo: VND com multi-start filtrado, Vizinho Mais Proximo, 2-Opt e Swap
TYPE: TOUR
DIMENSION: 29
TOTAL_WEIGHT: 27603
TOUR_SECTION
22
23
29
28
26
20
25
27
24
16
14
13
9
7
3
4
8
5
1
2
6
10
11
12
15
19
18
17
21
EOF
